language Essence 1.3

letting pain be
        [[(2, [(4, 10), (5, 11); int(1, 2)]), (2, [(4, 10), (5, 11); int(1, 2)]); int(1,
                                                                                      2)],
         [(2, [(4, 10), (5, 11); int(1, 2)]), (2, [(4, 10), (5, 11); int(1, 2)]); int(1,
                                                                                      2)]; int(1, 2)]
